(declare-fun v4 () (_ BitVec 9))
(declare-fun v7 () (_ BitVec 8))
(declare-fun a78 () (Array (_ BitVec 11) (_ BitVec 1)))
(assert
(let (($e6 (_ bv1 1)))
(let (($e15 (_ bv54 9)))
(let (($e34 (_ bv0 8)))
(let (($e42 (_ bv3 2)))
(let (($e129                    $e6     ))
(let (($e196 (   extract      v7)))
(let (($e295        a78             ))
(let (($e603 (concat $e34 $e129)))
(let (($e604              v4 ))
(let (($e605               $e603             ))
(let (($e606 (bvand        $e605         $e604 )))
(let (($e948                    $e42      ))
(let (($e949 (concat $e948 $e15)))
(let (($e950 (select $e295 $e949)))
(let (($e951 (concat $e34 $e950)))
(let (($e952 (bvand $e606 $e951)))
(let (($e1040             $e196          ))
(let (($e1041            $e1040 ))
              (ite        $e1041  $e952 $e606)
                                                                                                                                                                                                                                                                                                                                                                                                                                                                                                                                                                                                                                                                                                                                                                                                                                                                                                                                                                                                                                                                                                                                                                                                                                                                                                                                                                                                                                                                                                                                                                                                                                                                                                                                                                                                                                                                                                                                                                                                                                                                                                                                                                                                                                                                                                                                                                                                                                                                                                                                                                                                                                                                                                                                                                                                                                                                                                                                                                                                                                                                                                                                                                                                                                                                                                                                                                                                                                                                                                                                                                                                                                                                                                                                                                                                                                                                                                                                                                                                                                                                                                                                                                                                                                                                                                              ))                                                                                       )))))                                                                                                                                                                                                                                                                                                                                                     ))))                                                                                                                                                                                                                                                                                                                   )                                                                                                  )                                                                  )                                                               )       )                  )        )     )
